
;this file is automatically generated: Mon Nov 02 10:43:03 CST 2020

;declarations generated

(declare-fun oclExcludes ( Int Int) Bool)
(declare-fun Cardinality ( Int) Int)
(declare-fun class13_Class13IntAttr4 ( Int) Int)
(declare-fun class13_Class13IntAttr6 ( Int) Int)
(declare-fun class13_Class13IntAttr5 ( Int) Int)
(declare-fun type_cdabd041_12d2_41ef_b397_c4788b7a478b_Class2 ( Int) Bool)
(declare-fun type_cdabd041_12d2_41ef_b397_c4788b7a478b_Class3 ( Int) Bool)
(declare-fun type_cdabd041_12d2_41ef_b397_c4788b7a478b_Class0 ( Int) Bool)
(declare-fun type_cdabd041_12d2_41ef_b397_c4788b7a478b_Class1 ( Int) Bool)
(declare-fun type_cdabd041_12d2_41ef_b397_c4788b7a478b_Class8 ( Int) Bool)
(declare-fun type_cdabd041_12d2_41ef_b397_c4788b7a478b_Class9 ( Int) Bool)
(declare-fun type_cdabd041_12d2_41ef_b397_c4788b7a478b_Class6 ( Int) Bool)
(declare-fun type_cdabd041_12d2_41ef_b397_c4788b7a478b_Class7 ( Int) Bool)
(declare-fun type_cdabd041_12d2_41ef_b397_c4788b7a478b_Class4 ( Int) Bool)
(declare-fun type_cdabd041_12d2_41ef_b397_c4788b7a478b_Class5 ( Int) Bool)
(declare-fun class13_Class13BoolAttr3 ( Int) Bool)
(declare-fun class13_Class13BoolAttr2 ( Int) Bool)
(declare-fun class13_Class13BoolAttr1 ( Int) Bool)
(declare-fun class13_Class13BoolAttr0 ( Int) Bool)
(declare-fun oclSelect ( Int Bool) Int)
(declare-fun obj_94c235a7_c870_4166_bfc0_15df787b230a ( Int) Int)
(declare-fun Enum0 ( Int) Int)
(declare-fun Enum1 ( Int) Int)
(declare-fun Enum2 ( Int) Int)
(declare-fun container_ ( Int) Int)
(declare-fun type_cdabd041_12d2_41ef_b397_c4788b7a478b_Class15 ( Int) Bool)
(declare-fun type_cdabd041_12d2_41ef_b397_c4788b7a478b_Class16 ( Int) Bool)
(declare-fun type_cdabd041_12d2_41ef_b397_c4788b7a478b_Class17 ( Int) Bool)
(declare-fun type_cdabd041_12d2_41ef_b397_c4788b7a478b_Class11 ( Int) Bool)
(declare-fun oclIncludes ( Int Int) Bool)
(declare-fun type_cdabd041_12d2_41ef_b397_c4788b7a478b_Class12 ( Int) Bool)
(declare-fun type_cdabd041_12d2_41ef_b397_c4788b7a478b_Class13 ( Int) Bool)
(declare-fun type_cdabd041_12d2_41ef_b397_c4788b7a478b_Class14 ( Int) Bool)
(declare-fun type_cdabd041_12d2_41ef_b397_c4788b7a478b_Class10 ( Int) Bool)
(declare-fun ObjAt ( Int Int) Int)

;formula(s) generated
(assert (forall ((p Int)) (=> ( type_cdabd041_12d2_41ef_b397_c4788b7a478b_Class13 p )  (and (>= ( Enum0 ( obj_94c235a7_c870_4166_bfc0_15df787b230a p )  )  0) (<= ( Enum0 ( obj_94c235a7_c870_4166_bfc0_15df787b230a p )  )  4)))))
(assert (! (forall ((v Int)) (=> ( type_cdabd041_12d2_41ef_b397_c4788b7a478b_Class13 v )  (not (= ( Enum0 ( obj_94c235a7_c870_4166_bfc0_15df787b230a v )  )  2) ))):named l0))
(assert (! (forall ((v Int)) (=> ( type_cdabd041_12d2_41ef_b397_c4788b7a478b_Class13 v )  (not ( class13_Class13BoolAttr3 ( obj_94c235a7_c870_4166_bfc0_15df787b230a v )  )  ))):named l1))
(assert (! (or (forall ((v Int)) (=> ( type_cdabd041_12d2_41ef_b397_c4788b7a478b_Class13 v )  (or ( class13_Class13BoolAttr2 ( obj_94c235a7_c870_4166_bfc0_15df787b230a v )  )  (or (forall ((c3_2 Int)(c3_1 Int)) (=> (and ( type_cdabd041_12d2_41ef_b397_c4788b7a478b_Class13 c3_1 )  ( type_cdabd041_12d2_41ef_b397_c4788b7a478b_Class13 c3_2 ) ) (> ( class13_Class13IntAttr4 ( obj_94c235a7_c870_4166_bfc0_15df787b230a c3_1 )  )  ( class13_Class13IntAttr6 ( obj_94c235a7_c870_4166_bfc0_15df787b230a c3_2 )  ) ))) (forall ((v Int)) (=> ( type_cdabd041_12d2_41ef_b397_c4788b7a478b_Class13 v )  ( class13_Class13BoolAttr1 ( obj_94c235a7_c870_4166_bfc0_15df787b230a v )  ) )))))) (forall ((v Int)) (=> ( type_cdabd041_12d2_41ef_b397_c4788b7a478b_Class13 v )  (= ( Enum0 ( obj_94c235a7_c870_4166_bfc0_15df787b230a v )  )  3)))):named l2))
(assert (! (forall ((v Int)) (=> ( type_cdabd041_12d2_41ef_b397_c4788b7a478b_Class13 v )  (not ( class13_Class13BoolAttr3 ( obj_94c235a7_c870_4166_bfc0_15df787b230a v )  )  ))):named l3))
(assert (! (or (forall ((v Int)) (=> ( type_cdabd041_12d2_41ef_b397_c4788b7a478b_Class13 v )  ( class13_Class13BoolAttr3 ( obj_94c235a7_c870_4166_bfc0_15df787b230a v )  ) )) (forall ((v Int)) (=> ( type_cdabd041_12d2_41ef_b397_c4788b7a478b_Class13 v )  ( class13_Class13BoolAttr1 ( obj_94c235a7_c870_4166_bfc0_15df787b230a v )  ) ))):named l4))
(assert (! (forall ((v Int)) (=> ( type_cdabd041_12d2_41ef_b397_c4788b7a478b_Class13 v )  ( class13_Class13BoolAttr3 ( obj_94c235a7_c870_4166_bfc0_15df787b230a v )  ) )):named l5))
(assert (! (forall ((c1 Int)) (=> ( type_cdabd041_12d2_41ef_b397_c4788b7a478b_Class13 c1 )  (= ( Enum0 ( obj_94c235a7_c870_4166_bfc0_15df787b230a c1 )  )  1))):named l6))
(assert (! (forall ((c3_2 Int)(c3_1 Int)) (=> (and ( type_cdabd041_12d2_41ef_b397_c4788b7a478b_Class13 c3_1 )  ( type_cdabd041_12d2_41ef_b397_c4788b7a478b_Class13 c3_2 ) ) (= ( class13_Class13IntAttr4 ( obj_94c235a7_c870_4166_bfc0_15df787b230a c3_1 )  )  ( class13_Class13IntAttr6 ( obj_94c235a7_c870_4166_bfc0_15df787b230a c3_2 )  ) ))):named l7))
(assert (! (forall ((v Int)) (=> ( type_cdabd041_12d2_41ef_b397_c4788b7a478b_Class13 v )  (and (= ( class13_Class13IntAttr5 ( obj_94c235a7_c870_4166_bfc0_15df787b230a v )  )  5) (and (forall ((v Int)) (=> ( type_cdabd041_12d2_41ef_b397_c4788b7a478b_Class13 v )  (> ( class13_Class13IntAttr4 ( obj_94c235a7_c870_4166_bfc0_15df787b230a v )  )  9))) (forall ((v Int)) (=> ( type_cdabd041_12d2_41ef_b397_c4788b7a478b_Class13 v )  (<= ( class13_Class13IntAttr5 ( obj_94c235a7_c870_4166_bfc0_15df787b230a v )  )  1))))))):named l8))
(assert (! (forall ((v Int)) (=> ( type_cdabd041_12d2_41ef_b397_c4788b7a478b_Class13 v )  (= ( class13_Class13IntAttr4 ( obj_94c235a7_c870_4166_bfc0_15df787b230a v )  )  1))):named l9))
(assert (! (or (forall ((v Int)) (=> ( type_cdabd041_12d2_41ef_b397_c4788b7a478b_Class13 v )  ( class13_Class13BoolAttr0 ( obj_94c235a7_c870_4166_bfc0_15df787b230a v )  ) )) (forall ((v Int)) (=> ( type_cdabd041_12d2_41ef_b397_c4788b7a478b_Class13 v )  ( class13_Class13BoolAttr1 ( obj_94c235a7_c870_4166_bfc0_15df787b230a v )  ) ))):named l10))
(assert (! (exists ((o Int)) ( type_cdabd041_12d2_41ef_b397_c4788b7a478b_Class0 ( obj_94c235a7_c870_4166_bfc0_15df787b230a o )  ) ):named c0))
(assert (! (exists ((o Int)) ( type_cdabd041_12d2_41ef_b397_c4788b7a478b_Class1 ( obj_94c235a7_c870_4166_bfc0_15df787b230a o )  ) ):named c1))
(assert (! (exists ((o Int)) (and (and ( type_cdabd041_12d2_41ef_b397_c4788b7a478b_Class10 ( obj_94c235a7_c870_4166_bfc0_15df787b230a o )  )  ( type_cdabd041_12d2_41ef_b397_c4788b7a478b_Class14 ( obj_94c235a7_c870_4166_bfc0_15df787b230a o )  ) ) ( type_cdabd041_12d2_41ef_b397_c4788b7a478b_Class16 ( obj_94c235a7_c870_4166_bfc0_15df787b230a o )  ) )):named c2))
(assert (! (exists ((o Int)) ( type_cdabd041_12d2_41ef_b397_c4788b7a478b_Class11 ( obj_94c235a7_c870_4166_bfc0_15df787b230a o )  ) ):named c3))
(assert (! (exists ((o Int)) ( type_cdabd041_12d2_41ef_b397_c4788b7a478b_Class12 ( obj_94c235a7_c870_4166_bfc0_15df787b230a o )  ) ):named c4))
(assert (! (exists ((o Int)) ( type_cdabd041_12d2_41ef_b397_c4788b7a478b_Class13 ( obj_94c235a7_c870_4166_bfc0_15df787b230a o )  ) ):named c5))
(assert (! (exists ((o Int)) ( type_cdabd041_12d2_41ef_b397_c4788b7a478b_Class14 ( obj_94c235a7_c870_4166_bfc0_15df787b230a o )  ) ):named c6))
(assert (! (exists ((o Int)) ( type_cdabd041_12d2_41ef_b397_c4788b7a478b_Class15 ( obj_94c235a7_c870_4166_bfc0_15df787b230a o )  ) ):named c7))
(assert (! (exists ((o Int)) (and ( type_cdabd041_12d2_41ef_b397_c4788b7a478b_Class16 ( obj_94c235a7_c870_4166_bfc0_15df787b230a o )  )  ( type_cdabd041_12d2_41ef_b397_c4788b7a478b_Class14 ( obj_94c235a7_c870_4166_bfc0_15df787b230a o )  ) )):named c8))
(assert (! (exists ((o Int)) ( type_cdabd041_12d2_41ef_b397_c4788b7a478b_Class17 ( obj_94c235a7_c870_4166_bfc0_15df787b230a o )  ) ):named c9))
(assert (! (exists ((o Int)) ( type_cdabd041_12d2_41ef_b397_c4788b7a478b_Class2 ( obj_94c235a7_c870_4166_bfc0_15df787b230a o )  ) ):named c10))
(assert (! (exists ((o Int)) ( type_cdabd041_12d2_41ef_b397_c4788b7a478b_Class3 ( obj_94c235a7_c870_4166_bfc0_15df787b230a o )  ) ):named c11))
(assert (! (exists ((o Int)) ( type_cdabd041_12d2_41ef_b397_c4788b7a478b_Class4 ( obj_94c235a7_c870_4166_bfc0_15df787b230a o )  ) ):named c12))
(assert (! (exists ((o Int)) ( type_cdabd041_12d2_41ef_b397_c4788b7a478b_Class5 ( obj_94c235a7_c870_4166_bfc0_15df787b230a o )  ) ):named c13))
(assert (! (exists ((o Int)) ( type_cdabd041_12d2_41ef_b397_c4788b7a478b_Class6 ( obj_94c235a7_c870_4166_bfc0_15df787b230a o )  ) ):named c14))
(assert (! (exists ((o Int)) ( type_cdabd041_12d2_41ef_b397_c4788b7a478b_Class7 ( obj_94c235a7_c870_4166_bfc0_15df787b230a o )  ) ):named c15))
(assert (! (exists ((o Int)) ( type_cdabd041_12d2_41ef_b397_c4788b7a478b_Class8 ( obj_94c235a7_c870_4166_bfc0_15df787b230a o )  ) ):named c16))
(assert (! (exists ((o Int)) ( type_cdabd041_12d2_41ef_b397_c4788b7a478b_Class9 ( obj_94c235a7_c870_4166_bfc0_15df787b230a o )  ) ):named c17))

 ;end of formula 